Minimize
obj1:-18 x(1) +0 x(2) +14 x(3) +20 x(4) -20 x(5) +2 x(6) +15 x(7) +17 x(8) +14 x(9) +16 x(10) +10 x(11) -16 x(12) +0 x(13) -14 x(14) +14 x(15) +18 x(16) -14 x(17) +16 x(18) -5 x(19) -5 x(20)
Subject To
c1:+5 x(1) +17 x(2) +2 x(3) +13 x(4) +9 x(5) +6 x(6) +11 x(7) +13 x(8) +16 x(9) +14 x(10) +14 x(11) +11 x(12) +11 x(13) +4 x(14) +6 x(15) +15 x(16) +15 x(17) +15 x(18) +19 x(19) +15 x(20)  <=  58
c2:+18 x(1) +13 x(2) +14 x(3) +15 x(4) +20 x(5) +8 x(6) +5 x(7) +20 x(8) +1 x(9) +18 x(10) +13 x(11) +13 x(12) +4 x(13) +8 x(14) +4 x(15) +8 x(16) +14 x(17) +10 x(18) +2 x(19) +18 x(20)  <=  57
c3:+18 x(1) +10 x(2) +5 x(3) +8 x(4) +6 x(5) +15 x(6) +6 x(7) +5 x(8) +15 x(9) +19 x(10) +7 x(11) +12 x(12) +10 x(13) +17 x(14) +1 x(15) +2 x(16) +5 x(17) +15 x(18) +9 x(19) +13 x(20)  <=  60
c4:+6 x(1) +6 x(2) +5 x(3) +15 x(4) +14 x(5) +18 x(6) +14 x(7) +16 x(8) +15 x(9) +2 x(10) +8 x(11) +19 x(12) +11 x(13) +4 x(14) +9 x(15) +5 x(16) +2 x(17) +19 x(18) +12 x(19) +4 x(20)  <=  98
c5:+13 x(1) +6 x(2) +7 x(3) +18 x(4) +20 x(5) +7 x(6) +18 x(7) +18 x(8) +10 x(9) +10 x(10) +4 x(11) +18 x(12) +4 x(13) +7 x(14) +5 x(15) +5 x(16) +6 x(17) +11 x(18) +12 x(19) +12 x(20)  <=  50
c6:+16 x(1) +10 x(2) +4 x(3) +2 x(4) +14 x(5) +20 x(6) +18 x(7) +10 x(8) +12 x(9) +3 x(10) +16 x(11) +4 x(12) +13 x(13) +20 x(14) +18 x(15) +5 x(16) +18 x(17) +19 x(18) +17 x(19) +4 x(20)  <=  98
c7:+20 x(1) +5 x(2) +11 x(3) +3 x(4) +6 x(5) +20 x(6) +5 x(7) +4 x(8) +7 x(9) +6 x(10) +10 x(11) +4 x(12) +1 x(13) +17 x(14) +11 x(15) +15 x(16) +12 x(17) +5 x(18) +3 x(19) +19 x(20)  <=  51
c8:+19 x(1) +1 x(2) +20 x(3) +18 x(4) +11 x(5) +5 x(6) +8 x(7) +17 x(8) +4 x(9) +18 x(10) +8 x(11) +5 x(12) +7 x(13) +5 x(14) +19 x(15) +16 x(16) +10 x(17) +18 x(18) +7 x(19) +2 x(20)  <=  99
c9:+8 x(1) +4 x(2) +8 x(3) +9 x(4) +1 x(5) +16 x(6) +18 x(7) +10 x(8) +8 x(9) +4 x(10) +16 x(11) +16 x(12) +11 x(13) +20 x(14) +20 x(15) +11 x(16) +9 x(17) +2 x(18) +1 x(19) +7 x(20)  <=  65
c10:+4 x(1) +6 x(2) +12 x(3) +9 x(4) +18 x(5) +13 x(6) +6 x(7) +3 x(8) +19 x(9) +3 x(10) +5 x(11) +4 x(12) +7 x(13) +2 x(14) +12 x(15) +12 x(16) +16 x(17) +10 x(18) +20 x(19) +12 x(20)  <=  76
c11:+16 x(1) +4 x(2) +13 x(3) +20 x(4) +9 x(5) +19 x(6) +20 x(7) +18 x(8) +5 x(9) +11 x(10) +17 x(11) +20 x(12) +13 x(13) +9 x(14) +3 x(15) +13 x(16) +14 x(17) +1 x(18) +16 x(19) +10 x(20)  <=  93
c12:+3 x(1) +13 x(2) +15 x(3) +16 x(4) +7 x(5) +13 x(6) +13 x(7) +13 x(8) +8 x(9) +7 x(10) +17 x(11) +15 x(12) +8 x(13) +9 x(14) +19 x(15) +20 x(16) +14 x(17) +17 x(18) +16 x(19) +17 x(20)  <=  95
c13:+4 x(1) +17 x(2) +9 x(3) +20 x(4) +20 x(5) +15 x(6) +4 x(7) +2 x(8) +7 x(9) +8 x(10) +17 x(11) +4 x(12) +3 x(13) +9 x(14) +12 x(15) +13 x(16) +4 x(17) +4 x(18) +3 x(19) +11 x(20)  <=  59
c14:+8 x(1) +17 x(2) +18 x(3) +5 x(4) +10 x(5) +15 x(6) +17 x(7) +19 x(8) +2 x(9) +16 x(10) +8 x(11) +18 x(12) +19 x(13) +3 x(14) +18 x(15) +13 x(16) +9 x(17) +4 x(18) +7 x(19) +5 x(20)  <=  83
c15:+17 x(1) +17 x(2) +19 x(3) +2 x(4) +6 x(5) +8 x(6) +14 x(7) +1 x(8) +11 x(9) +17 x(10) +8 x(11) +19 x(12) +13 x(13) +9 x(14) +9 x(15) +19 x(16) +11 x(17) +4 x(18) +4 x(19) +15 x(20)  <=  98
c16:+12 x(1) +15 x(2) +16 x(3) +8 x(4) +2 x(5) +6 x(6) +11 x(7) +1 x(8) +17 x(9) +14 x(10) +18 x(11) +20 x(12) +14 x(13) +13 x(14) +13 x(15) +12 x(16) +8 x(17) +14 x(18) +10 x(19) +3 x(20)  <=  99
c17:+12 x(1) +18 x(2) +6 x(3) +11 x(4) +12 x(5) +1 x(6) +6 x(7) +20 x(8) +19 x(9) +9 x(10) +10 x(11) +12 x(12) +14 x(13) +20 x(14) +2 x(15) +7 x(16) +10 x(17) +5 x(18) +17 x(19) +14 x(20)  <=  55
c18:+19 x(1) +16 x(2) +16 x(3) +12 x(4) +4 x(5) +10 x(6) +1 x(7) +14 x(8) +15 x(9) +13 x(10) +12 x(11) +12 x(12) +15 x(13) +5 x(14) +19 x(15) +20 x(16) +7 x(17) +6 x(18) +13 x(19) +13 x(20)  <=  59
c19:+12 x(1) +5 x(2) +3 x(3) +20 x(4) +2 x(5) +13 x(6) +5 x(7) +8 x(8) +8 x(9) +5 x(10) +14 x(11) +4 x(12) +17 x(13) +8 x(14) +13 x(15) +9 x(16) +16 x(17) +16 x(18) +14 x(19) +5 x(20)  <=  88
c20:+1 x(1) +20 x(2) +11 x(3) +10 x(4) +12 x(5) +6 x(6) +8 x(7) +11 x(8) +6 x(9) +13 x(10) +20 x(11) +11 x(12) +11 x(13) +6 x(14) +3 x(15) +13 x(16) +8 x(17) +11 x(18) +13 x(19) +4 x(20)  <=  52
obj2:-9 x(1) +15 x(2) +10 x(3) -2 x(4) +9 x(5) +18 x(6) -13 x(7) -10 x(8) +6 x(9) +13 x(10) +14 x(11) -4 x(12) -16 x(13) -17 x(14) -6 x(15) +13 x(16) -12 x(17) +12 x(18) +6 x(19) -19 x(20)  <=  0
Binaries
x(1) x(2) x(3) x(4) x(5) x(6) x(7) x(8) x(9) x(10) x(11) x(12) x(13) x(14) x(15) x(16) x(17) x(18) x(19) x(20)
End
